p cnf 39 107
a 36 14 0
e 1 2 3 4 5 6 7 8 9 10 11 12 13 15 16 17 18 19 20 21 22 23 24 25 26 27 28 29 30 31 32 33 34 35 37 38 39 0
-3 -1 0
-3 -2 0
1 2 3 0
-3 4 -5 0
3 -4 -5 0
-3 -4 5 0
3 4 5 0
5 -2 -6 0
-5 2 -6 0
5 2 6 0
-5 -2 6 0
-8 7 0
-8 -4 0
-7 4 8 0
-12 -10 0
-12 -11 0
10 11 12 0
13 9 0
13 -12 0
-9 12 -13 0
-14 -13 0
-14 -3 0
13 3 14 0
-15 -14 0
-15 -13 0
14 13 15 0
17 16 0
17 -16 0
-15 17 -18 0
15 -17 -18 0
-15 -17 18 0
15 17 18 0
-19 9 0
-19 9 0
-9 19 0
-20 10 0
-20 -19 0
-10 19 20 0
2 20 -21 0
-2 -20 -21 0
2 -20 21 0
-2 20 21 0
-18 -21 -22 0
18 21 -22 0
-18 21 22 0
18 -21 22 0
-23 8 0
-23 -22 0
-8 22 23 0
-24 -19 -25 0
24 19 -25 0
-24 19 25 0
24 -19 25 0
26 23 0
26 25 0
-23 -25 -26 0
27 -9 0
27 7 0
9 -7 -27 0
-28 11 0
-28 -1 0
-11 1 28 0
27 28 -29 0
-27 -28 -29 0
27 -28 29 0
-27 28 29 0
30 -26 0
30 -29 0
26 29 -30 0
1 -11 -32 0
-1 11 -32 0
1 11 32 0
-1 -11 32 0
31 32 -33 0
-31 -32 -33 0
31 -32 33 0
-31 32 33 0
10 20 -34 0
-10 -20 -34 0
10 -20 34 0
-10 20 34 0
-35 2 0
-35 -10 0
-2 10 35 0
-36 34 0
-36 35 0
-34 -35 36 0
37 33 0
37 -36 0
-33 36 -37 0
-38 30 0
-38 37 0
-30 -37 38 0
-39 6 0
-39 38 0
-6 -38 39 0
-14 -33 -7 -17 0
32 -16 20 -31 27 0
-25 35 21 30 23 5 0
10 14 16 -30 8 21 0
21 17 7 0
-25 11 -6 20 0
-7 -17 15 -2 38 -32 36 26 0
-22 -15 -13 6 4 0
23 -4 -18 28 -14 0
11 15 36 29 8 3 24 0
39 0
